100
128
24
16
20
41
42
24
32
58
14
3
16
60
49
42
48
61
45
28
11
34
50
13
41
53
1
14
25
17
60
18
61
17
39
34
27
57
25
16
5
25
27
21
55
41
26
13
13
41
56
29
52
19
63
12
3
54
59
60
17
5
57
6
32
30
19
2
12
35
45
1
29
1
25
28
4
1
14
38
6
64
42
29
2
12
27
13
52
15
14
28
48
57
23
12
47
31
4
25
46
25